30
638
404
true
0.25
37 40 1 18 38 28 20 6 46 16 19 13 31 41 29 29 28 16 42 48 40 3 9 12 10 5 17 29 25 13
-51 99 7 -43 -92 50 87 3 24 -62 -4 24 19 -82 9 23 91 -13 -77 65 6 -3 -29 4 17 -92 -61 -16 -9 34
0 0 0 90 61 0 0 0 0 0 0 -95 0 44 -31 0 0 0 0 0 -28 0 2 0 0 0 61 0 30 -65
0 0 24 0 0 0 0 0 0 0 71 0 0 0 0 0 -55 39 0 0 90 0 0 84 74 0 0 0 0
0 0 0 0 0 0 0 6 0 0 0 0 51 98 -63 0 0 0 0 0 53 0 -78 -63 0 0 0 0
0 0 0 0 0 0 0 0 0 -90 0 0 0 -18 0 0 0 0 0 0 0 0 0 0 0 0 0
0 0 0 0 0 0 -54 0 0 0 0 0 0 0 0 33 0 0 0 0 0 -61 38 0 0 -24
0 0 -80 -41 0 0 0 0 0 0 0 0 -74 0 0 0 -90 0 0 0 0 -98 0 0 0
0 0 0 0 0 0 0 0 -15 0 35 0 0 0 -57 0 0 -90 56 0 0 0 0 0
0 0 82 0 0 63 0 0 36 0 80 0 -55 0 0 -31 0 0 0 0 -21 0 0
0 0 0 0 0 0 0 0 0 -29 0 -29 0 0 0 25 0 0 0 -43 0 0
0 0 0 0 0 0 0 3 0 45 0 0 0 0 0 0 0 0 60 6 64
0 0 0 -25 -38 0 0 3 0 0 0 -52 3 0 0 0 0 -45 0 67
0 0 -49 0 0 -98 0 0 -10 0 0 0 0 0 88 0 0 0 0
0 -31 21 0 -69 0 0 0 38 -12 40 0 0 -46 34 0 0 0
0 0 0 0 78 0 25 0 0 0 0 1 0 -56 -51 0 0
0 0 0 0 0 -27 0 -65 87 -40 75 -73 6 0 0 0
0 -67 0 0 6 0 0 0 -60 -57 73 -80 0 0 0
0 0 0 0 0 85 0 0 0 0 17 0 0 0
0 -63 0 20 0 0 0 -55 0 0 0 0 0
0 0 0 -37 0 -5 0 -43 0 0 0 4
0 0 -15 0 0 0 0 0 0 -99 0
0 0 0 0 -68 0 0 0 0 0
0 76 0 0 0 -58 0 0 0
0 0 0 0 0 0 0 0
0 0 42 0 0 0 0
0 -53 16 0 0 -73
0 -72 0 0 25
0 0 0 0
0 0 0
0 0
0 0 0 0 0 0 0 0 0 0 0 0 0 -89 0 0 0 0 0 0 0 0 0 0 0 -53 0 0 -71
0 0 0 0 0 0 0 0 0 0 0 46 0 0 0 0 -20 0 0 0 0 90 0 -27 -62 0 0 84
0 0 -92 0 0 0 67 0 0 0 0 0 0 97 0 0 0 0 0 -66 0 0 -30 0 0 0 0
0 0 0 53 0 0 0 -18 0 0 0 -30 27 0 0 0 0 -78 0 5 0 0 -63 30 0 0
0 0 -29 0 0 0 0 0 0 72 -98 0 -21 0 -58 0 0 -57 10 0 0 0 0 0 0
0 -78 83 0 0 0 0 -18 0 0 0 0 0 0 0 58 0 0 0 0 0 -80 0 0
0 0 0 0 0 0 16 0 0 0 0 0 0 0 0 0 0 0 -43 0 0 0 -15
0 0 52 0 0 0 0 0 95 0 0 0 74 0 0 0 0 0 -55 0 0 0
0 0 0 0 0 0 0 0 0 0 0 -83 0 79 -38 0 0 0 0 36 0
0 -72 0 84 -74 0 0 0 0 0 0 0 0 0 0 0 0 0 0 0
0 0 0 0 0 53 0 55 85 0 69 0 0 0 86 0 0 0 0
0 0 0 0 49 0 0 0 0 0 0 0 0 0 85 -13 0 0
0 0 0 0 0 97 0 0 0 70 0 0 0 0 0 0 0
0 0 0 0 0 0 0 0 0 59 0 0 0 0 -58 0
0 6 0 0 0 0 0 -70 0 0 0 -53 0 0 -87
0 -86 0 -61 -90 0 0 0 0 0 0 81 8 0
0 0 0 -30 0 0 0 13 0 0 0 0 0
0 0 0 0 0 25 0 -25 78 0 -83 0
0 0 0 0 -91 59 0 0 0 0 0
0 0 0 39 0 0 0 0 0 0
0 0 0 0 69 0 0 0 0
0 0 0 0 -91 0 0 0
0 94 0 0 0 0 0
0 0 -93 0 0 73
0 0 -17 0 0
0 0 0 0
0 0 0
0 55
0
0 0 0 0 0 0 0 -91 0 0 0 6 89 0 0 -18 0 0 0 0 0 0 0 0 0 0 0 0
0 48 96 79 0 6 0 0 0 0 0 -70 -97 -37 0 -70 0 0 0 0 47 0 0 49 0 0 0
0 0 0 0 0 0 0 0 0 9 0 0 -6 4 0 0 34 0 72 0 0 79 0 -10 0 0
0 0 63 0 0 0 25 0 0 0 -21 -30 0 0 0 0 0 0 0 19 58 -28 0 0 0
0 0 46 0 0 0 0 0 0 0 13 -12 0 0 0 80 0 0 0 0 -71 -52 0 0
0 0 -19 61 0 0 0 0 0 0 0 0 0 0 -96 0 0 0 0 0 0 0 39
0 0 0 0 0 0 0 0 0 -99 0 30 0 0 0 0 3 100 0 0 0 0
0 -96 0 43 0 0 0 -51 0 0 0 0 0 0 -28 0 0 0 0 0 0
0 0 0 85 0 0 0 0 0 0 -31 0 0 0 0 0 0 0 0 0
0 0 0 0 0 0 0 0 -78 0 0 0 -36 -9 -24 0 0 0 0
0 0 0 41 0 0 0 0 0 -66 0 0 0 94 0 0 -44 0
0 0 0 0 0 0 0 0 0 0 0 0 0 0 0 0 0
0 0 0 0 0 0 0 0 0 0 0 0 0 0 91 0
0 0 0 0 0 0 0 0 0 0 0 0 0 0 37
0 0 0 -64 0 0 0 0 0 0 -2 0 61 0
0 0 53 0 2 -59 64 0 0 0 0 0 0
0 40 69 -91 0 0 0 0 0 0 -83 -99
0 0 0 0 0 34 0 0 0 -28 0
0 0 0 0 0 0 0 0 0 0
0 0 55 0 0 0 0 0 -39
0 67 96 0 0 0 32 0
0 0 0 0 0 0 -12
0 0 0 -83 0 0
0 0 0 0 88
0 0 0 38
0 77 0
0 0
0
0 0 0 0 0 0 0 0 0 0 0 0 0 0 0 0 0 0 0 0 72 48 0 0 0 0 0
0 0 34 0 0 0 0 39 0 0 49 0 0 0 0 0 92 -58 0 0 -78 0 0 0 4 0
0 0 0 -21 -13 88 0 0 0 71 -3 0 72 0 0 0 0 0 0 0 0 0 39 0 0
0 70 0 0 0 0 0 0 0 0 0 -88 88 0 86 0 -39 0 0 0 -44 0 0 0
0 0 94 0 16 0 0 0 0 0 0 0 55 0 0 0 0 0 0 18 0 0 0
0 -35 0 0 0 0 0 0 0 0 13 0 0 0 0 0 0 0 93 0 0 0
0 11 0 82 -86 0 0 0 0 0 0 0 0 0 41 0 0 -9 0 0 0
0 0 0 25 85 0 0 0 0 -48 56 2 0 0 62 0 0 -4 -35 0
0 0 -15 53 0 0 0 0 -31 20 0 0 0 0 0 0 13 0 0
0 0 0 -74 0 0 0 0 0 0 0 -87 0 0 0 22 0 0
0 -29 0 20 0 -81 0 0 0 -92 0 0 0 0 2 6 -75
0 0 -78 0 0 0 0 0 -49 0 7 0 0 0 80 0
0 60 -56 0 0 0 0 0 0 0 0 0 0 0 0
0 0 0 0 0 0 0 0 -71 0 -48 -10 0 32
0 -20 0 0 0 0 -50 0 -8 0 0 0 94
0 0 0 0 0 0 14 0 0 -20 0 -3
0 28 0 0 0 90 0 -27 0 0 -12
0 0 0 0 0 0 0 0 0 0
0 0 0 0 0 0 0 0 0
0 0 0 0 0 39 -74 82
0 0 0 0 0 78 0
0 0 0 0 -93 0
0 0 0 0 -62
0 0 0 0
0 0 0
0 0
0
0 32 88 -64 0 0 56 0 0 0 0 0 0 100 -7 0 0 0 0 -42 0 0 0 0 -71 0
0 0 0 0 32 0 -23 0 0 44 -23 0 0 0 0 0 0 0 0 0 0 0 -53 90 -12
0 0 0 0 0 0 38 0 0 0 -85 0 -24 -31 0 0 0 4 0 0 0 0 0 0
0 -41 -46 0 -18 0 0 0 0 0 0 -18 14 0 0 -33 0 0 0 0 0 0 0
0 0 87 14 0 0 0 0 0 0 0 -77 0 0 0 0 0 64 0 -20 0 0
0 16 0 0 -37 0 40 0 -19 0 -77 0 0 9 0 0 20 0 0 0 0
0 0 87 0 -77 0 0 0 -63 -78 0 79 0 0 0 0 -51 -91 0 -85
0 -8 0 0 0 0 0 0 10 0 0 0 0 0 0 0 0 0 0
0 0 0 45 0 0 -31 -36 0 0 36 0 0 0 0 73 0 92
0 -22 0 -32 0 0 0 0 0 0 0 0 -27 0 56 0 0
0 -69 0 0 0 0 0 0 0 0 59 0 -29 0 0 0
0 0 0 0 -17 0 0 0 0 0 94 0 0 0 0
0 0 0 -95 10 0 0 0 0 0 0 -86 0 0
0 36 0 0 0 0 0 0 0 0 0 -77 0
0 0 0 0 0 0 0 0 0 26 0 54
0 0 0 -52 -78 0 0 0 -96 0 0
0 0 -84 0 22 19 24 0 0 0
0 0 0 0 -90 30 0 49 0
0 0 7 0 0 0 0 0
0 0 0 0 0 -70 0
0 -65 0 -54 0 0
0 0 0 0 -100
0 -63 0 0
0 0 0
0 0
0
0 0 0 -82 0 39 -92 0 -50 0 0 0 0 0 0 5 0 0 0 0 0 0 0 0 0
0 0 0 -24 0 0 0 0 0 0 0 0 81 0 49 0 0 -97 0 0 0 0 -41 0
0 0 0 0 50 0 0 0 0 0 -24 0 96 0 0 0 73 0 0 0 -65 0 0
0 0 0 0 0 0 0 0 0 85 0 -62 0 23 0 0 0 0 -92 0 0 0
0 0 0 0 0 0 0 0 83 0 -54 -56 0 0 0 71 0 63 0 55 -26
0 0 0 -40 -49 0 -3 0 0 0 0 0 26 0 42 0 0 0 0 87
0 0 69 23 0 0 0 -14 0 0 -22 0 -1 -11 0 0 0 80 0
0 41 -4 81 0 0 0 0 0 0 0 0 0 0 99 43 -3 0
0 -63 -15 0 0 30 0 0 0 0 0 0 0 0 0 0 0
0 14 0 0 0 -41 -74 0 0 0 0 0 -12 -83 55 0
0 0 0 0 20 0 0 0 0 0 0 0 0 0 0
0 37 0 0 0 0 55 -99 0 0 24 0 -82 0
0 0 0 0 0 0 58 0 0 0 -74 0 0
0 1 0 0 0 0 0 0 0 0 -27 0
0 -3 -34 -69 0 0 0 0 0 0 0
0 53 0 -41 0 36 0 0 0 2
0 -34 0 -94 -100 13 -14 0 -49
0 0 0 0 -45 0 0 -50
0 -53 -26 0 24 0 0
0 0 64 0 0 0
0 93 0 0 0
0 76 0 0
0 0 -65
0 0
0
0 4 91 0 0 0 0 0 0 0 0 87 -90 0 0 0 0 0 -9 0 0 0 0 -96
0 0 0 0 0 93 -31 10 73 0 0 -2 0 0 -99 21 -25 0 0 0 0 0 11
0 0 0 -72 0 0 0 0 0 0 0 0 0 81 0 0 0 6 19 0 0 0
0 0 0 0 0 -58 31 0 0 0 0 0 0 0 0 0 0 11 0 0 0
0 0 0 0 0 -60 0 0 -82 0 -64 0 0 0 0 0 -79 0 0 -63
0 0 0 29 0 0 0 0 0 0 0 0 73 0 0 0 -71 0 0
0 0 41 0 0 0 0 -42 0 0 55 0 0 0 73 0 0 0
0 46 88 0 0 0 0 0 0 0 -72 0 0 0 0 81 0
0 0 -22 0 60 0 0 69 -54 44 0 0 0 60 0 0
0 0 0 0 0 0 0 0 0 -98 89 0 39 0 0
0 0 0 0 0 -84 0 0 21 0 0 0 -87 -15
0 0 0 59 0 0 0 24 0 0 0 0 0
0 0 9 0 -98 0 0 0 0 -34 36 0
0 0 71 -1 0 0 0 0 0 -4 -81
0 0 0 0 -95 0 0 0 0 0
0 0 0 0 0 0 7 0 0
0 0 0 0 -2 0 77 0
0 0 0 72 0 0 0
0 0 0 0 0 1
0 0 0 0 92
0 88 0 0
0 0 0
0 0
0
0 0 35 0 0 0 -42 -81 0 -45 -19 0 0 0 66 0 0 0 0 -99 0 0 0
0 0 0 68 0 -80 0 0 0 -81 0 0 0 0 95 0 0 0 0 0 0 0
0 0 0 7 4 79 -99 0 0 0 0 0 0 88 0 0 0 -89 0 0 0
0 0 0 98 0 0 -79 0 -45 0 -30 0 57 0 4 0 -19 86 0 0
0 0 35 0 0 -4 -65 0 0 0 0 0 0 0 0 0 0 58 36
0 0 0 0 -12 0 0 0 0 -5 0 50 85 0 0 83 0 0
0 0 0 0 0 0 0 0 0 -76 0 22 0 37 0 -55 0
0 0 18 0 10 -93 -17 14 0 0 94 0 75 0 -13 0
0 0 0 0 0 0 0 0 0 0 0 0 0 0 0
0 -30 0 0 84 0 0 0 -23 -66 0 0 0 0
0 0 -69 0 0 -18 0 0 0 0 0 -5 0
0 0 0 -84 0 99 0 0 -58 0 83 33
0 0 0 0 0 0 0 0 0 0 0
0 0 0 0 0 0 0 -1 0 0
0 0 65 0 0 0 0 0 0
0 59 0 0 0 0 0 0
0 0 0 24 0 0 0
0 81 0 39 0 61
0 0 0 0 0
0 56 0 0
0 0 0
0 0
0
0 0 0 10 0 -81 65 0 0 0 0 0 6 -65 -17 0 0 0 0 0 31 0
0 0 -46 0 0 0 28 0 0 0 0 71 0 0 0 -100 0 73 5 0 0
0 0 -18 0 43 -66 0 59 -44 -83 0 0 0 -98 0 18 0 0 0 0
0 0 90 0 0 0 0 0 24 0 0 0 0 0 0 0 77 100 0
0 0 0 37 0 0 65 19 0 0 -91 0 0 0 99 0 0 0
0 0 -81 0 -65 0 0 0 0 0 -42 0 0 0 0 -10 0
0 -85 0 0 0 0 0 0 0 0 0 0 0 100 0 0
0 0 0 5 -29 0 64 0 0 82 -77 0 -29 0 0
0 15 0 0 -12 0 -69 0 0 0 0 0 0 0
0 0 -100 0 0 0 0 26 0 0 0 94 68
0 15 0 0 0 0 9 -65 0 0 0 0
0 0 -37 71 87 0 0 0 0 -53 90
0 0 -93 18 14 0 0 0 0 78
0 0 -98 0 0 0 0 0 0
0 0 0 0 0 18 -96 0
0 0 0 0 0 0 45
0 0 48 0 0 0
0 29 16 0 0
0 -75 0 0
0 0 0
0 0
0
0 0 0 0 0 0 0 0 -85 0 6 0 0 0 25 0 0 -49 -38 0 0
0 0 0 0 0 0 0 0 0 0 0 0 0 0 0 0 0 44 0 0
0 0 0 0 11 -22 0 0 0 0 0 0 0 0 92 6 0 0 0
0 0 81 0 0 0 0 0 0 0 0 -47 0 76 0 0 -25 0
0 0 0 0 0 0 0 0 -22 0 48 0 0 0 -31 39 0
0 0 -44 0 -55 0 0 0 0 -63 0 0 0 -5 0 0
0 -48 39 0 0 0 0 0 0 0 0 -18 0 15 0
0 0 0 -98 0 0 0 0 0 0 -54 0 0 -54
0 0 0 0 0 -70 19 0 0 0 -31 71 0
0 100 0 0 0 12 0 -81 0 0 0 90
0 0 0 0 0 0 0 0 16 -94 0
0 0 14 0 0 -4 0 0 -70 0
0 0 -93 0 0 0 0 0 0
0 0 0 0 0 -22 0 0
0 0 0 50 0 0 0
0 0 -96 0 0 -72
0 34 0 0 70
0 0 62 0
0 0 0
0 -65
0
0 0 0 -53 0 91 0 51 0 0 0 0 0 0 0 72 0 0 0 0
0 0 0 0 0 -100 -90 0 72 0 -65 0 0 0 -21 0 0 0 -44
0 0 0 0 0 92 -7 -23 -36 0 0 31 -16 0 0 0 0 0
0 0 0 0 0 0 0 0 0 0 0 -22 -96 0 0 0 0
0 0 0 -25 0 0 0 0 0 41 0 -29 0 0 0 0
0 0 0 0 -99 0 0 10 0 0 0 0 0 0 45
0 0 0 11 0 0 62 0 0 0 0 0 -48 22
0 0 0 -65 60 0 0 0 -93 0 0 -98 0
0 0 0 0 0 0 -7 -24 0 0 -13 0
0 0 0 45 0 0 0 0 -41 0 0
0 0 0 91 0 -49 0 0 0 0
0 0 0 0 0 0 -68 0 0
0 0 0 0 -4 0 22 0
0 0 0 0 0 0 0
0 0 0 88 0 0
0 0 0 0 80
0 0 29 0
0 0 0
0 0
0
0 -70 0 85 0 0 0 0 -43 0 0 -10 0 0 0 57 -38 0 -81
0 0 0 0 0 -3 0 0 0 0 0 32 45 0 -49 0 -8 0
0 0 0 40 0 0 0 0 0 12 0 0 0 0 42 0 0
0 0 0 0 0 -86 20 0 0 0 -38 0 0 0 0 0
0 -72 0 9 -84 -97 0 0 14 0 0 0 0 0 0
0 0 0 0 0 0 0 -71 2 0 0 51 0 0
0 10 0 -41 0 0 -11 29 0 -82 0 -5 0
0 -35 0 0 0 0 -14 0 0 0 -21 0
0 0 0 0 0 0 -56 0 0 -50 0
0 0 0 0 56 0 0 3 0 0
0 0 0 0 -56 0 0 0 0
0 0 -45 -81 0 0 100 -93
0 0 0 -91 80 0 0
0 0 -86 0 0 0
0 0 -65 0 0
0 0 0 0
0 77 0
0 30
0
0 0 0 0 0 0 0 0 0 -49 0 0 0 0 0 0 0 0
0 0 0 0 0 40 -45 -84 0 0 0 0 0 0 0 -83 0
0 0 0 0 0 0 0 0 0 0 0 0 0 0 0 0
0 0 0 -78 0 0 0 0 63 0 0 0 0 0 -92
0 0 0 0 0 0 0 67 0 0 0 0 94 0
0 0 -14 26 0 100 0 0 0 0 0 0 0
0 0 44 0 0 0 0 0 89 0 0 -77
0 -33 -99 0 0 0 0 0 0 3 0
0 0 -20 54 -35 -96 0 14 0 0
0 0 0 0 0 0 0 -21 -44
0 0 0 0 -73 21 0 0
0 0 0 -67 0 58 71
0 0 0 0 0 43
0 0 0 0 0
0 0 -41 53
0 0 0
0 -18
0
0 0 0 -3 0 90 0 0 0 0 0 0 0 0 0 -38 0
0 0 86 -12 0 -8 64 0 55 -64 76 0 0 0 -34 0
0 0 0 0 0 0 0 0 0 -34 0 0 0 0 10
0 0 0 0 59 -78 0 0 -20 0 0 0 0 0
0 0 24 0 0 0 0 0 0 0 -86 0 0
0 0 0 -90 0 -59 0 0 75 0 16 0
0 0 0 0 0 0 0 0 0 0 -69
0 0 0 0 0 -75 0 -85 72 0
0 0 0 0 0 0 -6 -74 0
0 0 42 -13 0 -42 0 0
0 0 18 0 0 0 0
0 0 0 0 0 0
0 0 0 0 0
0 44 20 1
0 0 0
0 0
0
0 0 0 0 0 0 0 -27 -10 -18 -69 0 0 0 0 38
0 0 0 -22 0 -32 0 0 0 -26 0 0 25 0 19
0 0 -47 0 0 91 0 0 0 0 0 0 0 0
0 1 0 0 0 0 0 0 0 0 0 0 0
0 0 0 0 -90 0 54 0 0 0 0 0
0 -63 0 0 0 0 0 0 0 93 0
0 0 0 0 0 0 -74 0 0 0
0 0 -49 0 0 0 -71 0 0
0 0 87 0 0 0 0 -18
0 0 0 0 -55 -48 -88
0 77 0 0 16 -43
0 0 0 77 0
0 0 0 0
0 -35 79
0 11
0
0 0 0 0 0 0 62 0 0 0 0 0 0 0 0
0 0 0 0 0 0 -12 0 0 0 -83 0 0 0
0 0 0 0 0 0 0 0 77 0 0 99 0
0 0 0 0 0 0 0 -79 0 -22 0 0
0 0 0 0 0 -46 0 -34 0 0 0
0 0 -37 0 0 0 -49 0 56 0
0 0 0 0 0 -100 0 1 26
0 0 0 0 0 0 -72 -60
0 0 0 0 -8 0 -86
0 47 0 0 0 0
0 0 0 0 0
0 0 4 0
0 -84 0
0 -97
0
0 0 0 22 0 0 0 0 0 0 0 57 -79 66
0 0 0 0 0 0 0 0 92 0 28 54 0
0 6 -20 0 0 0 -66 0 -88 0 0 0
0 0 3 0 0 0 0 -25 0 0 0
0 0 -53 0 65 0 0 56 -85 0
0 0 0 0 0 0 0 0 0
0 0 0 0 -7 0 0 0
0 0 0 14 0 0 0
0 0 0 -66 68 -95
0 -3 0 0 0
0 0 -25 0
0 42 19
0 0
0
0 66 26 -71 0 0 0 92 0 0 0 0 0
0 0 -44 0 0 0 0 0 0 0 77 0
0 0 0 0 0 0 0 0 0 0 0
0 0 -88 0 0 0 0 0 50 0
0 0 0 0 1 0 0 0 33
0 44 -89 0 0 0 0 0
0 0 0 0 0 0 60
0 0 0 0 46 0
0 0 0 0 0
0 0 9 0
0 14 0
0 26
0
0 0 0 0 -88 0 -7 0 66 -75 0 0
0 0 0 0 0 0 0 0 -85 0 24
0 0 84 0 0 -48 0 96 68 78
0 0 0 0 -45 0 0 3 -48
0 30 0 0 81 50 0 80
0 0 0 0 0 0 0
0 52 -79 0 -46 0
0 0 69 0 -50
0 0 100 0
0 0 90
0 0
0
0 -5 56 -44 25 0 0 0 0 47 0
0 0 0 0 0 20 0 -66 59 0
0 0 0 0 8 0 0 0 0
0 81 53 -34 0 0 0 -51
0 0 0 0 0 0 0
0 50 0 0 0 -14
0 0 0 -39 0
0 0 0 54
0 0 0
0 0
0
0 0 -37 0 0 10 0 0 -92 0
0 0 0 75 0 0 0 0 0
0 0 0 0 0 -69 0 -19
0 0 -90 0 85 0 0
0 100 0 95 -11 0
0 -92 0 -83 0
0 25 0 0
0 -68 0
0 0
0
0 0 0 -84 0 0 0 0 0
0 -42 52 0 -96 -25 0 0
0 0 0 0 0 0 0
0 0 0 54 0 0
0 22 87 0 71
0 0 0 0
0 0 0
0 0
0
0 65 20 0 0 0 4 0
0 0 0 0 15 0 20
0 77 3 0 0 0
0 24 0 0 0
0 0 0 0
0 0 -46
0 21
0
0 0 0 0 0 0 96
0 0 52 0 0 0
0 -76 0 62 0
0 62 0 0
0 0 0
0 0
0
0 0 0 -41 -33 0
0 46 -2 -74 0
0 -11 0 0
0 0 0
0 0
0
0 0 0 0 -50
0 0 0 -29
0 -36 0
0 0
0
0 0 0 0
0 -58 0
0 0
0
0 -61 -27
0 0
0
0 0
0
0
18 685 627 -781 91 -32 602 163 -169 -164 -960 71 1077 -683 -263 -700 -833 406 -551 -1975 -292 -966 -271 377 525 27 -701 -145 36 183
0.4864864864864865 17.125 627.0 -43.388888888888886 2.3947368421052633 -1.1428571428571428 30.1 27.166666666666668 -3.6739130434782608 -10.25 -50.526315789473685 5.461538461538462 34.74193548387097 -16.658536585365855 -9.068965517241379 -24.137931034482758 -29.75 25.375 -13.119047619047619 -41.145833333333336 -7.3 -322.0 -30.11111111111111 31.416666666666668 52.5 5.4 -41.23529411764706 -5.0 1.44 14.076923076923077
